problems/GracefulGears/GracefulGears-models/noch/O0/minion/model-n06-solution000001.eprime-solution
language ESSENCE' 1.0

letting colour_Function1D be [0, 1, 3, 6, 2, 9, 4, 13, 7, 15, 5, 17, 18; int(0..12)]
letting edgeID_Function1D be [1, 2, 3, 4, 7, 5, 9, 6, 8, 10, 12, 17, 18, 15, 16, 14, 11, 13; int(0..17)]
