problems/GracefulGears/GracefulGears-models/noch/O0/minion/model-n06-solution000001.solution
language Essence 1.3

letting colour be
        function(0 --> 0, 1 --> 1, 2 --> 3, 3 --> 6, 4 --> 2, 5 --> 9, 6 --> 4, 7 --> 13, 8 --> 7, 9 --> 15, 10 --> 5,
                 11 --> 17, 12 --> 18)
letting edgeID be
        function(0 --> 1, 1 --> 2, 2 --> 3, 3 --> 4, 4 --> 7, 5 --> 5, 6 --> 9, 7 --> 6, 8 --> 8, 9 --> 10, 10 --> 12,
                 11 --> 17, 12 --> 18, 13 --> 15, 14 --> 16, 15 --> 14, 16 --> 11, 17 --> 13)
